p edge 58 148
e 1 3
e 1 4
e 1 5
e 1 11
e 1 16
e 1 35
e 1 39
e 1 40
e 1 47
e 2 5
e 2 6
e 2 8
e 2 10
e 2 17
e 2 21
e 2 22
e 2 25
e 2 26
e 2 29
e 2 30
e 2 38
e 3 4
e 3 5
e 3 11
e 3 12
e 3 16
e 3 28
e 3 40
e 3 47
e 4 5
e 4 7
e 4 9
e 4 11
e 4 19
e 4 29
e 5 8
e 5 11
e 5 16
e 5 21
e 5 22
e 5 29
e 5 35
e 5 47
e 6 8
e 6 10
e 6 15
e 6 25
e 6 33
e 6 36
e 7 9
e 7 18
e 7 20
e 7 24
e 7 28
e 7 32
e 7 37
e 7 45
e 7 57
e 8 21
e 8 22
e 8 23
e 9 12
e 9 18
e 9 19
e 9 20
e 9 24
e 9 32
e 9 37
e 9 38
e 9 45
e 9 56
e 10 15
e 10 22
e 10 23
e 10 26
e 10 27
e 10 36
e 10 44
e 11 12
e 11 16
e 11 28
e 11 35
e 11 49
e 12 18
e 12 19
e 12 28
e 12 38
e 12 56
e 13 14
e 13 20
e 13 34
e 13 42
e 13 46
e 13 51
e 14 20
e 14 32
e 14 46
e 15 23
e 15 25
e 15 26
e 15 36
e 16 35
e 16 40
e 16 49
e 17 25
e 17 33
e 17 34
e 17 41
e 18 19
e 18 20
e 18 38
e 18 53
e 18 56
e 19 29
e 19 38
e 19 53
e 19 55
e 19 56
e 19 58
e 20 24
e 20 37
e 21 22
e 21 29
e 21 30
e 21 38
e 22 23
e 23 26
e 24 28
e 24 32
e 24 37
e 24 45
e 24 57
e 25 33
e 27 44
e 28 57
e 30 38
e 30 43
e 31 48
e 32 37
e 32 45
e 34 41
e 34 51
e 35 50
e 37 45
e 38 43
e 38 56
e 39 52
e 43 54
